% demand
num_movements = 22;
loading_factor = [1400, 1400, 2000, 1200, 800, 1000, 1300, 1000, 1650, 1000, 1000, 800, 1250, 1400, 1150, 1050, 1700, 800, 1350, 950, 1850, 1950];
pickup_time = [0, 0, 0, 0, 0, 1, 2, 3, 3, 3, 3, 3, 3, 7, 7, 8, 8, 9, 9, 10, 10, 12];
delivery_time = [3, 3, 2, 2, 1, 3, 3, 8, 8, 8, 6, 8, 5, 8, 8, 12, 12, 10, 13, 13, 13, 13];

% transporter definition
total_capacity = 7000;
num_decks = 3;
capacity = [3000, 1000, 3000];

% ways out of decks
num_ways_out = 1;
paths_out = array3d(decks, ways_out, decks, [
% ways out of deck d1
2, 3, 0, 

% ways out of deck d2
3, 0, 0, 

% ways out of deck d3
0, 0, 0,	

]);

